17	4	3
41	39	27	30	17	19	30	
0	0	0	0	0	3	1	4	10	10	5	3	2	3	4
9	10	7	0	7	2	9	10	10	1	4	3	6	7	17
7	8	0	1	7	10	5	6	8	4	10	3	12	15	17
8	8	0	5	4	8	10	4	7	10	10	2	5	6
6	1	9	0	5	5	3	1	2	6	8	1	17
100	7	0	10	6	7	8	8	10	7	8	2	10	13
50	9	0	10	5	4	8	6	3	8	6	2	8	17
50	9	2	10	8	7	8	1	3	5	5	3	9	11	17
100	9	3	10	2	2	2	4	6	9	4	1	14
200	0	10	6	5	5	3	6	6	5	2	3	15	16	17
150	0	1	0	5	3	1	9	1	10	6	2	14	17
125	1	3	0	4	8	4	4	4	7	2	1	17
2	10	10	1	9	10	4	9	10	6	3	2	14	17
6	6	0	7	0	4	8	5	8	3	3	1	17
1	0	5	5	8	2	8	6	8	3	10	2	17	17
2	5	5	0	4	9	6	1	7	7	10	1	17
0	0	0	0	0	2	4	4	6	8	1	0
